************************************************************************
file with basedata            : md141_.bas
initial value random generator: 204615826
************************************************************************
projects                      :  1
jobs (incl. supersource/sink ):  16
horizon                       :  117
RESOURCES
  - renewable                 :  2   R
  - nonrenewable              :  2   N
  - doubly constrained        :  0   D
************************************************************************
PROJECT INFORMATION:
pronr.  #jobs rel.date duedate tardcost  MPM-Time
    1     14      0       26        1       26
************************************************************************
PRECEDENCE RELATIONS:
jobnr.    #modes  #successors   successors
   1        1          3           2   3   4
   2        3          1           7
   3        3          3           5   6   8
   4        3          3           5   6   9
   5        3          2           7  11
   6        3          3          12  13  14
   7        3          2          14  15
   8        3          1           9
   9        3          3          10  11  14
  10        3          2          13  15
  11        3          2          12  13
  12        3          1          15
  13        3          1          16
  14        3          1          16
  15        3          1          16
  16        1          0        
************************************************************************
REQUESTS/DURATIONS:
jobnr. mode duration  R 1  R 2  N 1  N 2
------------------------------------------------------------------------
  1      1     0       0    0    0    0
  2      1     2       5    5    7    0
         2     8       5    3    0    3
         3    10       4    2    3    0
  3      1     1       7    6    9    0
         2     7       6    4    5    0
         3    10       4    3    4    0
  4      1     6       6    7    7    0
         2     6       7    7    5    0
         3     8       6    7    0    3
  5      1     6       4    7    0    5
         2     7       3    6    4    0
         3     9       3    5    2    0
  6      1     1       7    4    6    0
         2     3       7    2    3    0
         3    10       7    2    0    6
  7      1     1       2    2    9    0
         2     7       1    2    5    0
         3     7       1    2    0    5
  8      1     1       9    5    4    0
         2     5       8    3    0    9
         3     7       8    2    0    8
  9      1     2       3    4    4    0
         2     4       2    3    3    0
         3     4       3    1    2    0
 10      1     5       9    6    9    0
         2     7       8    6    3    0
         3     9       6    6    0   10
 11      1     4      10    8    0    7
         2     5       8    8    0    4
         3    10       3    7    0    3
 12      1     2      10    7   10    0
         2     3       9    7    0    8
         3     9       9    6    8    0
 13      1     2       8    4    3    0
         2     3       7    4    3    0
         3     8       6    2    0    3
 14      1     2       3    7    0    8
         2     4       3    5    0    7
         3     6       2    4    0    4
 15      1     8       5    8    8    0
         2     9       4    4    7    0
         3    10       3    3    4    0
 16      1     0       0    0    0    0
************************************************************************
RESOURCEAVAILABILITIES:
  R 1  R 2  N 1  N 2
   12   10   45   37
************************************************************************
